$ Converted with GEOUNED
$   ______ _______  _____      _     _ __   _ _______ ______  
$  |  ____ |______ |     | ___ |     | | \  | |______ |     \ 
$  |_____| |______ |_____|     |_____| |  \_| |______ |_____/
$ Version : 1.6.4
$ FreeCAD Version : 1.1.0 
$ PHITSFormat Version :  0.0.2.3     06/03/2024
$
$ *************************************************************
$ Original Step file : testing/inputSTEP/BC.stp
$
$ Creation Date : 2026-06-12 22:24:11.775520
$ Solid Cells   : 1
$ Total Cells   : 4
$ Surfaces      : 47
$ Materials     : 1
$
$ **************************************************************


$
$ ##########################################################
$                  CELL DEFINITION
$ ##########################################################
$
[CELL]
1     0      0.0000e+00 1 2 3 27 29:5 2 -28 -4:-28 8 9 -7 -6:8 -10 -9 -6 27 30:
           5 7 9 -14 -13 -4:-28 6 9 16 -15 -7:6 10 16 -15 27 31:32 -18 15 -17 
           -6 27:1 33 -20 -17 19 27:2 -28 -21 -11 22 -5:2 -28 -23 11 22:2 -28 
           -23 -22 24:-24 -22 2 -28:-28 7 -23 9 11 13 24 -2:-28 5 7 13 -14 -4 
           -2:-28 7 9 -21 13 -11 -5 -2:34 7 27 9 -21 -13 -5:35 11 -13 21 27:1 
           -28 9 17 -7 25:-28 9 -18 15 -17 -7:1 -28 -20 -16 19 -10:36 6 10 -18 
           15 -17 27:26 -19 17 25 -6 27:1 37 -20 17 19 -6 27:1 -28 38 8 9 -24 
           11 13 -12 27 -2:-28 7 8 -24 -22 9 12 -2:-28 6 39 27 -18 16 -10 -9 25 
           -5:16 18 19 -20:-19 16 17 18 -9 25:-18 -17 -16 15 -10 -9:-19 -16 17 
           -10 25:6 10 -19 17 25:1 6 -5 40 10 -20 15 17 -14 19 27:-7 -5 1 14:1 
           5 10 -20 -14:1 5 10 -20 14 -7:-28 5 -20 -18 16 -14 19 -10 -9 -4:1 
           -28 14 16 -10 -9 -7:-28 5 -19 -18 16 -9 25
$           Vol=8.812167e+02 cm3
$ 
$ ##########################################################
$              VOID CELLS
$ ##########################################################
$ 
3     1     -1.2900e-03 -47 #1
$           Vol=1.0 cm3
           $Inner void
           $VOID CELL 2 merged, so the auto-genarated void definition is eliminated

4     -1     47
$           Vol=1.0 cm3
           $Outer void
 
$
$ ##########################################################
$                  SURFACE DEFINITION
$ ##########################################################
$
[SURFACE]
1      P     7.6604443e-01   6.4278762e-01   1.9624920e-14 -1.7249986e+02
2      P    -5.3391381e-01   8.3038354e-01   1.5937131e-01  1.4696768e+03
3      P    -4.1320296e-02  -9.9914595e-01   2.6190341e-15 -1.0769532e+03
4      P    -7.4971440e-01   6.5816288e-01   6.8919742e-02  1.5744285e+03
5      P    -7.9410793e-01   3.5743249e-01   4.9156343e-01  1.0560673e+03
6      P    -2.3108078e-01   7.5317757e-01   6.1589384e-01  7.7427071e+02
7      P    -7.6021442e-01   6.4967225e-01   7.5938675e-29  1.6143079e+03
8      P    -6.1221592e-01   7.6486160e-01   2.0044550e-01  1.4606708e+03
9      P    -5.3391381e-01   8.3038354e-01   1.5937131e-01  1.4667389e+03
10     P    -9.9482992e-02  -9.3720112e-01  -3.3430105e-01 -7.5199819e+02
11     P     5.8710102e-01  -5.2160956e-01  -6.1906046e-01 -9.2910906e+02
12     P     9.9482992e-02   9.3720112e-01   3.3430105e-01  7.5396017e+02
13     P     4.1320296e-02   9.9914595e-01   0.0000000e+00  1.0747367e+03
14     P    -9.3552737e-01   2.4455851e-01   2.5491110e-01  1.2244051e+03
15     P    -5.8710102e-01   5.2160956e-01   6.1906046e-01  9.2677819e+02
16     P    -6.7740119e-01   7.1547688e-01   1.7093991e-01  1.4967699e+03
17     P    -7.9410793e-01   3.5743249e-01   4.9156343e-01  1.0537146e+03
18     P     7.1782738e-01  -6.8447303e-01  -1.2735986e-01 -1.5324305e+03
19     P    -9.3552737e-01   2.4455851e-01   2.5491110e-01  1.2220391e+03
20     P     7.6021442e-01  -6.4967225e-01  -1.3197855e-15 -1.6113489e+03
21     P    -7.1782738e-01   6.8447303e-01   1.2735986e-01  1.5353878e+03
22     P    -6.1221592e-01   7.6486160e-01   2.0044550e-01  1.4636092e+03
23     P    -6.7740119e-01   7.1547688e-01   1.7093991e-01  1.4997204e+03
24     P    -2.3108078e-01   7.5317757e-01   6.1589384e-01  7.7644722e+02
25     P    -7.4971440e-01   6.5816288e-01   6.8919742e-02  1.5714702e+03
26     P     4.5826501e-01   3.8453002e-01   8.0133005e-01 -5.4339708e+02
27     GQ   0.586824073757936  0.413175926242064  1.000000000000000
           0.984807758328653 -0.000000000000002  0.000000000000002
          264.285115918179088 221.761550186818369 1106.000000000004775
          335556.201909289171454 
28     GQ   0.586824073758100  0.413175926241900  1.000000000000000
           0.984807758328595  0.000000000000466 -0.000000000000391
          264.285115918648273 221.761550187578422 1105.999999999035481
          335369.201908899529371 
29     P     3.8105988e-01   3.1974722e-01  -8.6749933e-01  3.9652158e+02
30     P     7.3935291e-01   6.2039077e-01  -2.6167262e-01 -1.8888965e+01
31     P     7.5381541e-01   6.3252625e-01   1.7796874e-01 -2.6521070e+02
32     P     6.5829463e-01   5.5237480e-01   5.1140029e-01 -4.2808876e+02
33     P     1.6251503e-01   1.3636630e-01   9.7723748e-01 -5.7407617e+02
34     P     6.4434174e-01   5.4066694e-01   5.4083545e-01 -4.4147637e+02
35     P     5.9135214e-01   4.9620338e-01   6.3567668e-01 -4.8169249e+02
36     P     7.2652018e-01   6.0962283e-01   3.1706219e-01 -3.3595014e+02
37     P     4.1593377e-01   3.4900988e-01   8.3975663e-01 -5.5552719e+02
38     P     6.9205560e-01   5.8070361e-01  -4.2876842e-01  8.2556380e+01
39     P     7.1623658e-01   6.0099387e-01   3.5469920e-01 -3.5529168e+02
40     P     5.2626602e-01   4.4158964e-01   7.2666545e-01 -5.1817193e+02
41     PX  -1.1712350e+03
42     PX  -1.1542000e+03
43     PY   1.1175133e+03
44     PY   1.1337507e+03
45     PZ  -5.6800000e+02
46     PZ  -5.3800000e+02
47     S  -1.1627175e+03  1.1256320e+03 -5.5300000e+02  1.9445919e+01
 
$
$ ##########################################################
$                  VOLUME DEFINITION
$ ##########################################################
$ The CAD calculated volume(s) is/are quoted for solid cell(s).
$ Note that the auto-generated void volumes are not calculated,
$ set all at 1.0cm3 tentatively.
$
[VOLUME] off
     reg     vol
      1      8.812167e+02
      3      1.0
      4      1.0
 
